c 88_3_checker_6cl.cnf
c
c field = 88
c formula set type = 3_checker_6cl
c
p cnf 6 34
168 
170 
172 
-167 
-164 
-176 
169 
171 
173 
-166 
-165 
-177 
168 
170 
172 
-177 
-166 
-178 
169 
171 
173 
-176 
-167 
-179 
170 
172 
176 
-169 
-166 
-178 
171 
173 
177 
-168 
-167 
-179 
84 
114 
144 
-55 
-24 
-204 
85 
115 
145 
-54 
-25 
-205 
84 
114 
144 
-205 
-54 
-234 
85 
115 
145 
-204 
-55 
-235 
114 
144 
204 
-85 
-54 
-234 
115 
145 
205 
-84 
-55 
-235 
114 
144 
204 
-235 
-84 
-264 
115 
145 
205 
-234 
-85 
-265 
144 
204 
234 
-115 
-84 
-264 
145 
205 
235 
-114 
-85 
-265 
144 
204 
234 
-265 
-114 
-294 
145 
205 
235 
-264 
-115 
-295 
204 
234 
264 
-145 
-114 
-294 
205 
235 
265 
-144 
-115 
-295 
204 
234 
264 
-295 
-144 
-324 
205 
235 
265 
-294 
-145 
-325 
78 
110 
142 
-47 
-14 
-206 
79 
111 
143 
-46 
-15 
-207 
78 
110 
142 
-207 
-46 
-238 
79 
111 
143 
-206 
-47 
-239 
110 
142 
206 
-79 
-46 
-238 
111 
143 
207 
-78 
-47 
-239 
146 
202 
230 
-259 
-118 
-286 
147 
203 
231 
-258 
-119 
-287 
202 
230 
258 
-147 
-118 
-286 
203 
231 
259 
-146 
-119 
-287 
202 
230 
258 
-287 
-146 
-314 
203 
231 
259 
-286 
-147 
-315 
